
Log started (V20.1.0.0) Sun Aug  7 20:11:12 2022


Problem 'pp.lp' read.
Read time = 0.00 sec. (0.00 ticks)
Version identifier: 20.1.0.0 | 2020-11-10 | 9bedb6d68
Tried aggregator 1 time.
LP Presolve eliminated 0 rows and 1 columns.
Reduced LP has 2 rows, 2 columns, and 4 nonzeros.
Presolve time = 0.00 sec. (0.00 ticks)

Iteration log . . .
Iteration:     1   Dual objective     =             4.000000

Dual simplex - Optimal:  Objective =  5.6000000000e+00
Solution time =    0.00 sec.  Iterations = 2 (0)
Deterministic time = 0.00 ticks  (4.36 ticks/sec)


Variable Name           Solution Value
x1                            2.200000
x2                            0.400000
All other variables matching '*' are 0.
Version identifier: 20.1.0.0 | 2020-11-10 | 9bedb6d68
Using devex.

Primal simplex - Optimal:  Objective =  5.6000000000e+00
Solution time =    0.00 sec.  Iterations = 0 (0)
Deterministic time = 0.00 ticks  (0.37 ticks/sec)


Variable Name           Solution Value
x1                            2.200000
x2                            0.400000
All other variables matching '*' are 0.

Log started (V20.1.0.0) Sun Aug  7 20:18:13 2022


Problem 'pd.lp' read.
Read time = 0.00 sec. (0.00 ticks)
Version identifier: 20.1.0.0 | 2020-11-10 | 9bedb6d68
Infeasibility row 'r1_1':  0 >= 2.
Presolve time = 0.00 sec. (0.00 ticks)
Presolve - Infeasible.
Solution time =    0.00 sec.
Deterministic time = 0.00 ticks  (0.34 ticks/sec)
